23
6 -5 6320 8
-5 6 941 5
-4 -4 1162 2
-6 1 1976 8
3 6 7348 3
-4 0 8160 6
0 2 6113 3
-2 1 9483 3
5 5 8714 3
5 -1 4651 6
2 5 1280 7
5 1 3648 2
-2 1 8958 9
-6 6 4095 9
1 -5 7344 7
2 0 8431 7
-1 1 5483 5
-2 1 2714 8
-1 1 915 5
3 -3 4219 7
2 -4 7078 10
-6 -6 4754 7
5 4 7145 3
